job_count = 28 ;
duration = [|36, 3, 3, 5|7, 20, 8, 5|20, 28, 15, 2|39, 27, 5, 7|21, 27, 16, 2|39, 15, 14, 4|17, 5, 6, 5|25, 5, 11, 9|11, 9, 14, 4|31, 23, 5, 9|39, 15, 6, 8|26, 4, 11, 3|4, 13, 16, 7|9, 19, 2, 3|28, 6, 13, 2|11, 18, 7, 9|14, 23, 15, 9|20, 20, 14, 1|20, 13, 13, 4|21, 24, 6, 4|17, 29, 7, 2|36, 24, 2, 5|27, 17, 14, 1|32, 17, 15, 5|22, 9, 13, 9|21, 21, 8, 8|35, 21, 16, 3|12, 20, 6, 3|] ;
machine_count = 4 ;
cost = [|15, 34, 42, 55|10, 32, 50, 52|15, 24, 49, 79|15, 32, 57, 45|18, 25, 39, 53|15, 39, 37, 51|12, 39, 46, 46|14, 38, 45, 60|18, 33, 49, 72|13, 23, 35, 77|16, 21, 41, 77|17, 29, 45, 79|10, 23, 39, 71|13, 28, 35, 41|10, 30, 57, 61|14, 27, 34, 77|13, 20, 53, 43|10, 31, 44, 62|11, 20, 44, 47|13, 24, 55, 58|14, 38, 34, 51|12, 22, 33, 79|17, 29, 57, 78|12, 33, 48, 72|13, 24, 50, 58|15, 25, 37, 43|16, 34, 37, 76|17, 34, 32, 74|] ;
deadline = [58, 58, 58, 58, 58, 58, 58, 58, 58, 58, 58, 58, 58, 58, 58, 58, 58, 58, 58, 58, 58, 58, 58, 58, 58, 58, 58, 58] ;
release = [0, 0, 0, 0, 0, 0, 0, 0, 0, 0, 0, 0, 0, 0, 0, 0, 0, 0, 0, 0, 0, 0, 0, 0, 0, 0, 0, 0] ;
resource = [|3, 3, 3, 3|2, 2, 2, 2|4, 4, 4, 4|3, 3, 3, 3|5, 5, 5, 5|4, 4, 4, 4|9, 9, 9, 9|7, 7, 7, 7|2, 2, 2, 2|9, 9, 9, 9|3, 3, 3, 3|5, 5, 5, 5|1, 1, 1, 1|9, 9, 9, 9|2, 2, 2, 2|6, 6, 6, 6|2, 2, 2, 2|8, 8, 8, 8|8, 8, 8, 8|5, 5, 5, 5|4, 4, 4, 4|5, 5, 5, 5|6, 6, 6, 6|4, 4, 4, 4|8, 8, 8, 8|8, 8, 8, 8|7, 7, 7, 7|3, 3, 3, 3|] ;
capacities = [10, 10, 10, 10] ;
